70
1 0 257
2 0 210
2 1 280
3 0 145
3 1 300
3 2 257
4 0 131
4 1 134
4 2 130
4 3 114
5 0 12
5 1 132
5 2 308
5 3 201
5 4 156
6 0 36
6 1 163
6 2 78
6 3 162
6 4 239
6 5 46
7 0 130
7 1 70
7 2 283
7 3 129
7 4 197
7 5 225
7 6 287
8 0 176
8 1 15
8 2 96
8 3 286
8 4 32
8 5 27
8 6 136
8 7 79
9 0 293
9 1 214
9 2 286
9 3 5
9 4 186
9 5 146
9 6 14
9 7 282
9 8 292
10 0 306
10 1 57
10 2 123
10 3 241
10 4 51
10 5 17
10 6 182
10 7 146
10 8 94
10 9 166
11 0 123
11 1 219
11 2 234
11 3 153
11 4 122
11 5 147
11 6 68
11 7 243
11 8 182
11 9 174
11 10 272
12 0 210
12 1 163
12 2 194
12 3 205
12 4 36
12 5 314
12 6 253
12 7 132
12 8 283
12 9 244
12 10 186
12 11 142
13 0 52
13 1 140
13 2 37
13 3 57
13 4 133
13 5 69
13 6 105
13 7 250
13 8 162
13 9 62
13 10 192
13 11 145
13 12 105
14 0 176
14 1 242
14 2 240
14 3 154
14 4 185
14 5 199
14 6 104
14 7 245
14 8 187
14 9 148
14 10 267
14 11 164
14 12 8
14 13 2
15 0 302
15 1 5
15 2 141
15 3 295
15 4 208
15 5 186
15 6 10
15 7 287
15 8 119
15 9 314
15 10 299
15 11 222
15 12 164
15 13 96
15 14 181
16 0 284
16 1 149
16 2 157
16 3 191
16 4 27
16 5 85
16 6 33
16 7 120
16 8 279
16 9 102
16 10 319
16 11 291
16 12 260
16 13 306
16 14 16
16 15 233
17 0 50
17 1 239
17 2 35
17 3 61
17 4 57
17 5 247
17 6 237
17 7 29
17 8 86
17 9 106
17 10 163
17 11 209
17 12 59
17 13 254
17 14 271
17 15 67
17 16 21
18 0 165
18 1 235
18 2 56
18 3 61
18 4 24
18 5 243
18 6 47
18 7 166
18 8 79
18 9 95
18 10 64
18 11 162
18 12 147
18 13 267
18 14 229
18 15 246
18 16 210
18 17 225
19 0 109
19 1 167
19 2 247
19 3 246
19 4 275
19 5 298
19 6 104
19 7 257
19 8 48
19 9 251
19 10 243
19 11 189
19 12 142
19 13 32
19 14 181
19 15 9
19 16 185
19 17 191
19 18 109
20 0 237
20 1 315
20 2 43
20 3 85
20 4 312
20 5 185
20 6 185
20 7 220
20 8 255
20 9 255
20 10 207
20 11 255
20 12 276
20 13 138
20 14 234
20 15 182
20 16 90
20 17 21
20 18 240
20 19 144
21 0 110
21 1 62
21 2 156
21 3 162
21 4 36
21 5 114
21 6 12
21 7 301
21 8 62
21 9 281
21 10 79
21 11 81
21 12 47
21 13 11
21 14 98
21 15 145
21 16 113
21 17 241
21 18 287
21 19 14
21 20 108
22 0 38
22 1 162
22 2 239
22 3 264
22 4 117
22 5 267
22 6 49
22 7 7
22 8 20
22 9 139
22 10 254
22 11 305
22 12 228
22 13 307
22 14 88
22 15 256
22 16 306
22 17 217
22 18 161
22 19 179
22 20 31
22 21 53
23 0 54
23 1 172
23 2 210
23 3 89
23 4 303
23 5 137
23 6 49
23 7 267
23 8 44
23 9 319
23 10 110
23 11 205
23 12 218
23 13 216
23 14 181
23 15 246
23 16 252
23 17 173
23 18 1
23 19 59
23 20 189
23 21 150
23 22 300
24 0 58
24 1 190
24 2 159
24 3 107
24 4 73
24 5 255
24 6 198
24 7 113
24 8 39
24 9 247
24 10 193
24 11 185
24 12 197
24 13 36
24 14 168
24 15 36
24 16 289
24 17 304
24 18 27
24 19 251
24 20 186
24 21 175
24 22 314
24 23 45
25 0 11
25 1 39
25 2 263
25 3 315
25 4 110
25 5 118
25 6 119
25 7 184
25 8 39
25 9 137
25 10 51
25 11 262
25 12 304
25 13 64
25 14 221
25 15 7
25 16 84
25 17 75
25 18 258
25 19 17
25 20 275
25 21 220
25 22 305
25 23 317
25 24 139
26 0 314
26 1 118
26 2 181
26 3 239
26 4 65
26 5 151
26 6 7
26 7 115
26 8 121
26 9 311
26 10 65
26 11 20
26 12 38
26 13 148
26 14 303
26 15 122
26 16 114
26 17 166
26 18 40
26 19 267
26 20 29
26 21 180
26 22 284
26 23 256
26 24 116
26 25 15
27 0 6
27 1 58
27 2 303
27 3 214
27 4 117
27 5 68
27 6 133
27 7 226
27 8 252
27 9 31
27 10 187
27 11 214
27 12 43
27 13 110
27 14 158
27 15 272
27 16 38
27 17 304
27 18 141
27 19 163
27 20 52
27 21 273
27 22 226
27 23 233
27 24 166
27 25 74
27 26 320
28 0 53
28 1 99
28 2 206
28 3 245
28 4 99
28 5 79
28 6 13
28 7 275
28 8 294
28 9 52
28 10 48
28 11 87
28 12 228
28 13 217
28 14 257
28 15 273
28 16 180
28 17 177
28 18 38
28 19 92
28 20 235
28 21 195
28 22 234
28 23 226
28 24 291
28 25 83
28 26 119
28 27 231
29 0 8
29 1 314
29 2 171
29 3 244
29 4 68
29 5 117
29 6 21
29 7 320
29 8 107
29 9 160
29 10 269
29 11 77
29 12 291
29 13 263
29 14 298
29 15 177
29 16 131
29 17 237
29 18 282
29 19 180
29 20 83
29 21 209
29 22 5
29 23 192
29 24 315
29 25 39
29 26 289
29 27 69
29 28 108
30 0 117
30 1 124
30 2 229
30 3 124
30 4 108
30 5 261
30 6 219
30 7 277
30 8 4
30 9 115
30 10 236
30 11 83
30 12 224
30 13 189
30 14 290
30 15 144
30 16 145
30 17 216
30 18 136
30 19 286
30 20 297
30 21 281
30 22 256
30 23 206
30 24 86
30 25 65
30 26 147
30 27 220
30 28 266
30 29 125
31 0 110
31 1 130
31 2 276
31 3 193
31 4 74
31 5 60
31 6 141
31 7 157
31 8 220
31 9 125
31 10 80
31 11 157
31 12 291
31 13 90
31 14 22
31 15 174
31 16 268
31 17 199
31 18 319
31 19 188
31 20 110
31 21 314
31 22 250
31 23 160
31 24 117
31 25 8
31 26 271
31 27 115
31 28 79
31 29 100
31 30 254
32 0 66
32 1 227
32 2 106
32 3 172
32 4 206
32 5 61
32 6 271
32 7 101
32 8 313
32 9 152
32 10 260
32 11 86
32 12 243
32 13 279
32 14 102
32 15 94
32 16 282
32 17 104
32 18 138
32 19 117
32 20 198
32 21 75
32 22 276
32 23 190
32 24 89
32 25 290
32 26 257
32 27 194
32 28 101
32 29 268
32 30 122
32 31 38
33 0 32
33 1 104
33 2 181
33 3 233
33 4 224
33 5 17
33 6 160
33 7 102
33 8 110
33 9 217
33 10 181
33 11 194
33 12 143
33 13 180
33 14 209
33 15 217
33 16 110
33 17 45
33 18 146
33 19 200
33 20 40
33 21 205
33 22 248
33 23 183
33 24 77
33 25 25
33 26 38
33 27 224
33 28 231
33 29 243
33 30 36
33 31 31
33 32 70
34 0 239
34 1 154
34 2 159
34 3 63
34 4 314
34 5 205
34 6 93
34 7 311
34 8 7
34 9 52
34 10 99
34 11 155
34 12 206
34 13 192
34 14 97
34 15 287
34 16 216
34 17 165
34 18 39
34 19 164
34 20 278
34 21 205
34 22 314
34 23 172
34 24 227
34 25 165
34 26 114
34 27 224
34 28 114
34 29 25
34 30 122
34 31 247
34 32 80
34 33 2
35 0 249
35 1 143
35 2 313
35 3 252
35 4 227
35 5 69
35 6 152
35 7 268
35 8 26
35 9 30
35 10 216
35 11 51
35 12 57
35 13 127
35 14 35
35 15 101
35 16 211
35 17 289
35 18 54
35 19 233
35 20 99
35 21 41
35 22 304
35 23 187
35 24 16
35 25 159
35 26 302
35 27 278
35 28 44
35 29 212
35 30 307
35 31 94
35 32 171
35 33 96
35 34 20
36 0 41
36 1 275
36 2 14
36 3 132
36 4 67
36 5 145
36 6 149
36 7 85
36 8 214
36 9 130
36 10 72
36 11 183
36 12 38
36 13 209
36 14 255
36 15 277
36 16 102
36 17 134
36 18 134
36 19 139
36 20 203
36 21 206
36 22 47
36 23 305
36 24 236
36 25 60
36 26 56
36 27 11
36 28 118
36 29 292
36 30 258
36 31 133
36 32 62
36 33 314
36 34 227
36 35 244
37 0 302
37 1 294
37 2 125
37 3 70
37 4 149
37 5 105
37 6 310
37 7 87
37 8 121
37 9 86
37 10 227
37 11 169
37 12 112
37 13 227
37 14 295
37 15 138
37 16 111
37 17 179
37 18 38
37 19 35
37 20 84
37 21 58
37 22 195
37 23 254
37 24 253
37 25 128
37 26 278
37 27 172
37 28 158
37 29 133
37 30 130
37 31 53
37 32 125
37 33 36
37 34 299
37 35 226
37 36 173
38 0 220
38 1 19
38 2 221
38 3 133
38 4 195
38 5 271
38 6 41
38 7 24
38 8 86
38 9 294
38 10 320
38 11 133
38 12 298
38 13 316
38 14 180
38 15 3
38 16 239
38 17 301
38 18 288
38 19 96
38 20 316
38 21 290
38 22 129
38 23 61
38 24 250
38 25 293
38 26 47
38 27 84
38 28 305
38 29 28
38 30 129
38 31 60
38 32 252
38 33 140
38 34 227
38 35 22
38 36 268
38 37 238
39 0 61
39 1 231
39 2 9
39 3 35
39 4 47
39 5 72
39 6 239
39 7 23
39 8 20
39 9 56
39 10 207
39 11 156
39 12 160
39 13 158
39 14 100
39 15 158
39 16 199
39 17 238
39 18 38
39 19 85
39 20 77
39 21 87
39 22 254
39 23 133
39 24 215
39 25 216
39 26 204
39 27 65
39 28 248
39 29 110
39 30 114
39 31 302
39 32 302
39 33 48
39 34 295
39 35 85
39 36 318
39 37 157
39 38 8
40 0 33
40 1 35
40 2 82
40 3 298
40 4 176
40 5 123
40 6 147
40 7 266
40 8 13
40 9 189
40 10 183
40 11 14
40 12 127
40 13 57
40 14 258
40 15 193
40 16 233
40 17 221
40 18 284
40 19 39
40 20 89
40 21 19
40 22 27
40 23 306
40 24 201
40 25 158
40 26 162
40 27 13
40 28 290
40 29 292
40 30 296
40 31 307
40 32 280
40 33 34
40 34 222
40 35 33
40 36 27
40 37 46
40 38 144
40 39 307
41 0 137
41 1 210
41 2 228
41 3 291
41 4 257
41 5 8
41 6 181
41 7 29
41 8 231
41 9 200
41 10 316
41 11 47
41 12 19
41 13 196
41 14 196
41 15 312
41 16 94
41 17 309
41 18 279
41 19 254
41 20 295
41 21 224
41 22 284
41 23 25
41 24 291
41 25 167
41 26 172
41 27 84
41 28 110
41 29 104
41 30 168
41 31 75
41 32 217
41 33 83
41 34 149
41 35 309
41 36 65
41 37 110
41 38 73
41 39 283
41 40 208
42 0 251
42 1 25
42 2 255
42 3 24
42 4 168
42 5 124
42 6 144
42 7 127
42 8 211
42 9 299
42 10 18
42 11 84
42 12 231
42 13 13
42 14 126
42 15 32
42 16 13
42 17 31
42 18 88
42 19 175
42 20 190
42 21 69
42 22 155
42 23 193
42 24 34
42 25 20
42 26 163
42 27 59
42 28 110
42 29 36
42 30 219
42 31 309
42 32 246
42 33 270
42 34 161
42 35 206
42 36 21
42 37 217
42 38 86
42 39 7
42 40 69
42 41 203
43 0 106
43 1 184
43 2 26
43 3 5
43 4 184
43 5 121
43 6 232
43 7 194
43 8 294
43 9 167
43 10 280
43 11 57
43 12 306
43 13 146
43 14 99
43 15 102
43 16 13
43 17 277
43 18 18
43 19 262
43 20 130
43 21 316
43 22 205
43 23 72
43 24 59
43 25 168
43 26 277
43 27 63
43 28 109
43 29 165
43 30 245
43 31 262
43 32 290
43 33 276
43 34 244
43 35 17
43 36 27
43 37 115
43 38 53
43 39 278
43 40 14
43 41 119
43 42 170
44 0 274
44 1 162
44 2 193
44 3 179
44 4 89
44 5 134
44 6 177
44 7 147
44 8 288
44 9 113
44 10 177
44 11 19
44 12 19
44 13 132
44 14 185
44 15 15
44 16 247
44 17 238
44 18 54
44 19 30
44 20 291
44 21 2
44 22 47
44 23 253
44 24 216
44 25 110
44 26 4
44 27 204
44 28 296
44 29 233
44 30 42
44 31 159
44 32 40
44 33 231
44 34 55
44 35 84
44 36 287
44 37 7
44 38 126
44 39 213
44 40 162
44 41 115
44 42 214
44 43 147
45 0 238
45 1 179
45 2 134
45 3 128
45 4 319
45 5 281
45 6 273
45 7 249
45 8 174
45 9 306
45 10 38
45 11 126
45 12 105
45 13 288
45 14 98
45 15 86
45 16 223
45 17 140
45 18 133
45 19 145
45 20 305
45 21 33
45 22 224
45 23 230
45 24 214
45 25 291
45 26 12
45 27 20
45 28 16
45 29 307
45 30 57
45 31 62
45 32 286
45 33 309
45 34 27
45 35 170
45 36 283
45 37 203
45 38 223
45 39 117
45 40 79
45 41 104
45 42 255
45 43 51
45 44 16
46 0 179
46 1 278
46 2 57
46 3 208
46 4 55
46 5 26
46 6 308
46 7 22
46 8 69
46 9 257
46 10 84
46 11 97
46 12 306
46 13 91
46 14 149
46 15 274
46 16 171
46 17 131
46 18 221
46 19 319
46 20 30
46 21 214
46 22 4
46 23 170
46 24 169
46 25 228
46 26 167
46 27 23
46 28 31
46 29 57
46 30 56
46 31 38
46 32 180
46 33 206
46 34 207
46 35 147
46 36 204
46 37 285
46 38 209
46 39 193
46 40 266
46 41 264
46 42 134
46 43 118
46 44 12
46 45 239
47 0 90
47 1 262
47 2 149
47 3 268
47 4 197
47 5 22
47 6 216
47 7 320
47 8 177
47 9 245
47 10 282
47 11 156
47 12 58
47 13 85
47 14 261
47 15 289
47 16 66
47 17 230
47 18 234
47 19 174
47 20 84
47 21 206
47 22 124
47 23 46
47 24 112
47 25 238
47 26 31
47 27 157
47 28 23
47 29 307
47 30 52
47 31 162
47 32 214
47 33 22
47 34 98
47 35 233
47 36 9
47 37 97
47 38 279
47 39 91
47 40 45
47 41 260
47 42 308
47 43 258
47 44 226
47 45 298
47 46 240
48 0 292
48 1 267
48 2 184
48 3 201
48 4 37
48 5 27
48 6 77
48 7 316
48 8 117
48 9 79
48 10 130
48 11 222
48 12 184
48 13 195
48 14 109
48 15 205
48 16 247
48 17 218
48 18 194
48 19 294
48 20 260
48 21 168
48 22 238
48 23 142
48 24 244
48 25 66
48 26 299
48 27 47
48 28 108
48 29 15
48 30 214
48 31 12
48 32 28
48 33 202
48 34 205
48 35 227
48 36 58
48 37 256
48 38 147
48 39 52
48 40 300
48 41 16
48 42 281
48 43 315
48 44 174
48 45 27
48 46 196
48 47 76
49 0 167
49 1 140
49 2 315
49 3 206
49 4 298
49 5 133
49 6 296
49 7 281
49 8 121
49 9 250
49 10 35
49 11 25
49 12 86
49 13 288
49 14 77
49 15 275
49 16 298
49 17 95
49 18 232
49 19 157
49 20 162
49 21 279
49 22 105
49 23 311
49 24 246
49 25 48
49 26 155
49 27 56
49 28 71
49 29 117
49 30 118
49 31 105
49 32 58
49 33 83
49 34 302
49 35 145
49 36 220
49 37 275
49 38 172
49 39 186
49 40 134
49 41 207
49 42 214
49 43 259
49 44 310
49 45 273
49 46 72
49 47 186
49 48 63
50 0 265
50 1 54
50 2 221
50 3 147
50 4 225
50 5 115
50 6 302
50 7 301
50 8 244
50 9 73
50 10 149
50 11 141
50 12 97
50 13 108
50 14 18
50 15 84
50 16 274
50 17 27
50 18 34
50 19 38
50 20 13
50 21 25
50 22 320
50 23 57
50 24 159
50 25 307
50 26 315
50 27 209
50 28 177
50 29 217
50 30 291
50 31 183
50 32 214
50 33 156
50 34 125
50 35 209
50 36 252
50 37 65
50 38 77
50 39 121
50 40 31
50 41 150
50 42 70
50 43 225
50 44 282
50 45 20
50 46 156
50 47 10
50 48 144
50 49 162
51 0 97
51 1 108
51 2 99
51 3 164
51 4 257
51 5 198
51 6 27
51 7 2
51 8 308
51 9 6
51 10 273
51 11 251
51 12 18
51 13 100
51 14 277
51 15 13
51 16 65
51 17 196
51 18 280
51 19 97
51 20 262
51 21 157
51 22 160
51 23 178
51 24 31
51 25 267
51 26 118
51 27 170
51 28 247
51 29 48
51 30 305
51 31 154
51 32 270
51 33 62
51 34 110
51 35 297
51 36 8
51 37 5
51 38 128
51 39 51
51 40 1
51 41 297
51 42 314
51 43 164
51 44 287
51 45 290
51 46 75
51 47 215
51 48 130
51 49 137
51 50 36
52 0 177
52 1 188
52 2 268
52 3 200
52 4 162
52 5 75
52 6 202
52 7 153
52 8 275
52 9 92
52 10 113
52 11 37
52 12 32
52 13 251
52 14 297
52 15 98
52 16 60
52 17 72
52 18 200
52 19 255
52 20 242
52 21 131
52 22 14
52 23 218
52 24 87
52 25 36
52 26 237
52 27 160
52 28 121
52 29 39
52 30 132
52 31 70
52 32 304
52 33 175
52 34 249
52 35 184
52 36 204
52 37 125
52 38 172
52 39 169
52 40 294
52 41 261
52 42 28
52 43 219
52 44 298
52 45 191
52 46 268
52 47 1
52 48 189
52 49 207
52 50 105
52 51 54
53 0 246
53 1 218
53 2 157
53 3 122
53 4 184
53 5 115
53 6 236
53 7 151
53 8 310
53 9 147
53 10 241
53 11 199
53 12 83
53 13 308
53 14 43
53 15 25
53 16 79
53 17 32
53 18 90
53 19 190
53 20 6
53 21 217
53 22 54
53 23 179
53 24 217
53 25 101
53 26 295
53 27 11
53 28 169
53 29 118
53 30 96
53 31 35
53 32 153
53 33 217
53 34 165
53 35 108
53 36 219
53 37 134
53 38 9
53 39 56
53 40 224
53 41 213
53 42 56
53 43 203
53 44 211
53 45 167
53 46 271
53 47 199
53 48 82
53 49 267
53 50 172
53 51 212
53 52 175
54 0 289
54 1 144
54 2 303
54 3 265
54 4 223
54 5 173
54 6 305
54 7 43
54 8 149
54 9 210
54 10 15
54 11 35
54 12 248
54 13 47
54 14 259
54 15 89
54 16 114
54 17 191
54 18 12
54 19 307
54 20 98
54 21 189
54 22 189
54 23 130
54 24 152
54 25 200
54 26 199
54 27 278
54 28 50
54 29 191
54 30 253
54 31 202
54 32 122
54 33 150
54 34 166
54 35 102
54 36 125
54 37 24
54 38 135
54 39 303
54 40 51
54 41 37
54 42 134
54 43 162
54 44 3
54 45 267
54 46 63
54 47 31
54 48 217
54 49 303
54 50 5
54 51 289
54 52 125
54 53 244
55 0 7
55 1 157
55 2 257
55 3 195
55 4 185
55 5 70
55 6 281
55 7 318
55 8 85
55 9 253
55 10 6
55 11 34
55 12 182
55 13 62
55 14 22
55 15 185
55 16 118
55 17 182
55 18 313
55 19 208
55 20 263
55 21 246
55 22 81
55 23 40
55 24 66
55 25 194
55 26 154
55 27 240
55 28 248
55 29 38
55 30 176
55 31 304
55 32 253
55 33 91
55 34 121
55 35 6
55 36 71
55 37 15
55 38 69
55 39 62
55 40 242
55 41 193
55 42 288
55 43 76
55 44 52
55 45 80
55 46 194
55 47 139
55 48 47
55 49 101
55 50 294
55 51 48
55 52 56
55 53 297
55 54 114
56 0 99
56 1 2
56 2 210
56 3 198
56 4 162
56 5 266
56 6 89
56 7 61
56 8 185
56 9 87
56 10 65
56 11 33
56 12 262
56 13 219
56 14 108
56 15 301
56 16 72
56 17 149
56 18 112
56 19 139
56 20 127
56 21 99
56 22 224
56 23 71
56 24 7
56 25 217
56 26 278
56 27 190
56 28 22
56 29 275
56 30 189
56 31 98
56 32 24
56 33 121
56 34 40
56 35 271
56 36 62
56 37 228
56 38 255
56 39 203
56 40 282
56 41 156
56 42 119
56 43 26
56 44 120
56 45 209
56 46 314
56 47 174
56 48 114
56 49 94
56 50 216
56 51 166
56 52 138
56 53 32
56 54 266
56 55 207
57 0 112
57 1 201
57 2 303
57 3 123
57 4 28
57 5 284
57 6 192
57 7 125
57 8 55
57 9 282
57 10 188
57 11 319
57 12 300
57 13 37
57 14 159
57 15 97
57 16 182
57 17 89
57 18 83
57 19 249
57 20 32
57 21 162
57 22 139
57 23 127
57 24 233
57 25 319
57 26 79
57 27 222
57 28 48
57 29 278
57 30 208
57 31 85
57 32 236
57 33 176
57 34 302
57 35 196
57 36 247
57 37 21
57 38 221
57 39 109
57 40 20
57 41 1
57 42 310
57 43 34
57 44 209
57 45 20
57 46 79
57 47 270
57 48 154
57 49 143
57 50 114
57 51 49
57 52 38
57 53 161
57 54 120
57 55 284
57 56 11
58 0 106
58 1 130
58 2 94
58 3 317
58 4 116
58 5 179
58 6 91
58 7 146
58 8 14
58 9 194
58 10 219
58 11 71
58 12 42
58 13 45
58 14 160
58 15 184
58 16 100
58 17 62
58 18 191
58 19 228
58 20 16
58 21 202
58 22 99
58 23 74
58 24 297
58 25 262
58 26 271
58 27 295
58 28 291
58 29 113
58 30 192
58 31 53
58 32 73
58 33 266
58 34 197
58 35 215
58 36 282
58 37 316
58 38 284
58 39 124
58 40 290
58 41 213
58 42 80
58 43 234
58 44 296
58 45 140
58 46 312
58 47 183
58 48 202
58 49 272
58 50 137
58 51 189
58 52 71
58 53 191
58 54 95
58 55 284
58 56 298
58 57 41
59 0 99
59 1 7
59 2 54
59 3 145
59 4 144
59 5 274
59 6 296
59 7 60
59 8 21
59 9 271
59 10 139
59 11 23
59 12 124
59 13 219
59 14 97
59 15 165
59 16 114
59 17 143
59 18 171
59 19 297
59 20 253
59 21 189
59 22 53
59 23 270
59 24 76
59 25 170
59 26 160
59 27 40
59 28 40
59 29 192
59 30 35
59 31 238
59 32 313
59 33 196
59 34 21
59 35 302
59 36 276
59 37 116
59 38 46
59 39 250
59 40 99
59 41 242
59 42 291
59 43 93
59 44 122
59 45 136
59 46 292
59 47 272
59 48 197
59 49 6
59 50 149
59 51 151
59 52 15
59 53 163
59 54 220
59 55 18
59 56 166
59 57 62
59 58 247
60 0 278
60 1 308
60 2 91
60 3 224
60 4 245
60 5 134
60 6 71
60 7 275
60 8 303
60 9 289
60 10 34
60 11 77
60 12 73
60 13 144
60 14 286
60 15 69
60 16 45
60 17 291
60 18 84
60 19 25
60 20 108
60 21 110
60 22 86
60 23 251
60 24 34
60 25 25
60 26 66
60 27 215
60 28 318
60 29 243
60 30 103
60 31 4
60 32 263
60 33 4
60 34 82
60 35 224
60 36 189
60 37 158
60 38 117
60 39 148
60 40 23
60 41 147
60 42 105
60 43 114
60 44 30
60 45 50
60 46 213
60 47 145
60 48 249
60 49 197
60 50 31
60 51 313
60 52 84
60 53 234
60 54 263
60 55 91
60 56 221
60 57 194
60 58 64
60 59 150
61 0 144
61 1 195
61 2 124
61 3 153
61 4 310
61 5 207
61 6 289
61 7 2
61 8 179
61 9 163
61 10 67
61 11 187
61 12 32
61 13 123
61 14 239
61 15 184
61 16 181
61 17 269
61 18 9
61 19 18
61 20 217
61 21 287
61 22 227
61 23 247
61 24 61
61 25 316
61 26 254
61 27 203
61 28 184
61 29 287
61 30 105
61 31 141
61 32 53
61 33 10
61 34 80
61 35 264
61 36 303
61 37 183
61 38 104
61 39 187
61 40 200
61 41 119
61 42 70
61 43 287
61 44 196
61 45 206
61 46 71
61 47 29
61 48 31
61 49 259
61 50 50
61 51 305
61 52 97
61 53 21
61 54 141
61 55 245
61 56 198
61 57 164
61 58 136
61 59 172
61 60 81
62 0 295
62 1 122
62 2 45
62 3 151
62 4 147
62 5 263
62 6 93
62 7 223
62 8 318
62 9 3
62 10 194
62 11 318
62 12 241
62 13 265
62 14 56
62 15 215
62 16 158
62 17 130
62 18 111
62 19 21
62 20 132
62 21 35
62 22 234
62 23 235
62 24 157
62 25 268
62 26 177
62 27 205
62 28 12
62 29 238
62 30 285
62 31 3
62 32 160
62 33 251
62 34 143
62 35 307
62 36 305
62 37 227
62 38 271
62 39 38
62 40 239
62 41 151
62 42 203
62 43 257
62 44 77
62 45 24
62 46 151
62 47 147
62 48 198
62 49 125
62 50 66
62 51 139
62 52 66
62 53 148
62 54 249
62 55 115
62 56 250
62 57 96
62 58 59
62 59 189
62 60 252
62 61 72
63 0 299
63 1 188
63 2 152
63 3 71
63 4 238
63 5 41
63 6 114
63 7 283
63 8 111
63 9 235
63 10 156
63 11 294
63 12 240
63 13 242
63 14 156
63 15 90
63 16 84
63 17 300
63 18 97
63 19 121
63 20 31
63 21 132
63 22 37
63 23 316
63 24 145
63 25 159
63 26 294
63 27 241
63 28 102
63 29 227
63 30 205
63 31 141
63 32 135
63 33 268
63 34 273
63 35 102
63 36 15
63 37 16
63 38 145
63 39 105
63 40 220
63 41 107
63 42 262
63 43 291
63 44 233
63 45 254
63 46 122
63 47 221
63 48 194
63 49 163
63 50 181
63 51 107
63 52 56
63 53 29
63 54 182
63 55 95
63 56 74
63 57 25
63 58 134
63 59 95
63 60 123
63 61 255
63 62 89
64 0 232
64 1 241
64 2 121
64 3 310
64 4 94
64 5 60
64 6 4
64 7 38
64 8 221
64 9 309
64 10 208
64 11 148
64 12 319
64 13 59
64 14 235
64 15 61
64 16 42
64 17 94
64 18 216
64 19 110
64 20 203
64 21 154
64 22 38
64 23 217
64 24 159
64 25 278
64 26 92
64 27 159
64 28 276
64 29 232
64 30 276
64 31 112
64 32 261
64 33 50
64 34 80
64 35 205
64 36 193
64 37 306
64 38 60
64 39 155
64 40 306
64 41 203
64 42 316
64 43 132
64 44 127
64 45 235
64 46 304
64 47 233
64 48 216
64 49 6
64 50 218
64 51 201
64 52 235
64 53 30
64 54 115
64 55 123
64 56 274
64 57 177
64 58 73
64 59 69
64 60 276
64 61 246
64 62 256
64 63 198
65 0 169
65 1 263
65 2 184
65 3 102
65 4 193
65 5 83
65 6 91
65 7 28
65 8 28
65 9 208
65 10 290
65 11 27
65 12 205
65 13 49
65 14 4
65 15 160
65 16 92
65 17 167
65 18 58
65 19 199
65 20 259
65 21 91
65 22 169
65 23 196
65 24 143
65 25 20
65 26 182
65 27 205
65 28 274
65 29 56
65 30 6
65 31 40
65 32 128
65 33 26
65 34 66
65 35 82
65 36 68
65 37 88
65 38 64
65 39 10
65 40 220
65 41 209
65 42 274
65 43 156
65 44 74
65 45 168
65 46 109
65 47 279
65 48 159
65 49 239
65 50 288
65 51 291
65 52 137
65 53 218
65 54 278
65 55 138
65 56 261
65 57 293
65 58 68
65 59 320
65 60 66
65 61 317
65 62 38
65 63 110
65 64 112
66 0 172
66 1 125
66 2 209
66 3 180
66 4 196
66 5 219
66 6 45
66 7 210
66 8 29
66 9 271
66 10 116
66 11 96
66 12 128
66 13 281
66 14 68
66 15 10
66 16 2
66 17 87
66 18 192
66 19 65
66 20 133
66 21 256
66 22 65
66 23 202
66 24 175
66 25 302
66 26 271
66 27 233
66 28 259
66 29 174
66 30 105
66 31 108
66 32 78
66 33 136
66 34 261
66 35 210
66 36 150
66 37 317
66 38 35
66 39 269
66 40 129
66 41 33
66 42 113
66 43 83
66 44 306
66 45 232
66 46 18
66 47 155
66 48 42
66 49 35
66 50 156
66 51 140
66 52 90
66 53 183
66 54 241
66 55 109
66 56 138
66 57 25
66 58 63
66 59 110
66 60 300
66 61 72
66 62 283
66 63 5
66 64 272
66 65 96
67 0 102
67 1 5
67 2 249
67 3 169
67 4 216
67 5 225
67 6 52
67 7 228
67 8 47
67 9 149
67 10 51
67 11 262
67 12 85
67 13 314
67 14 201
67 15 84
67 16 67
67 17 254
67 18 286
67 19 295
67 20 165
67 21 264
67 22 88
67 23 46
67 24 226
67 25 242
67 26 169
67 27 82
67 28 230
67 29 122
67 30 241
67 31 122
67 32 48
67 33 113
67 34 120
67 35 170
67 36 242
67 37 310
67 38 73
67 39 91
67 40 209
67 41 278
67 42 288
67 43 181
67 44 56
67 45 262
67 46 265
67 47 84
67 48 128
67 49 301
67 50 273
67 51 237
67 52 219
67 53 21
67 54 45
67 55 162
67 56 261
67 57 26
67 58 242
67 59 172
67 60 187
67 61 143
67 62 86
67 63 13
67 64 282
67 65 68
67 66 49
68 0 224
68 1 199
68 2 88
68 3 294
68 4 197
68 5 42
68 6 215
68 7 54
68 8 166
68 9 243
68 10 42
68 11 20
68 12 316
68 13 272
68 14 70
68 15 281
68 16 228
68 17 125
68 18 251
68 19 202
68 20 16
68 21 290
68 22 167
68 23 310
68 24 137
68 25 148
68 26 282
68 27 247
68 28 105
68 29 258
68 30 206
68 31 67
68 32 280
68 33 13
68 34 272
68 35 48
68 36 109
68 37 120
68 38 317
68 39 66
68 40 8
68 41 249
68 42 172
68 43 255
68 44 103
68 45 210
68 46 93
68 47 315
68 48 314
68 49 266
68 50 36
68 51 7
68 52 261
68 53 148
68 54 6
68 55 268
68 56 135
68 57 221
68 58 218
68 59 277
68 60 197
68 61 37
68 62 266
68 63 3
68 64 214
68 65 141
68 66 46
68 67 194
69 0 184
69 1 271
69 2 160
69 3 212
69 4 279
69 5 302
69 6 261
69 7 258
69 8 256
69 9 123
69 10 254
69 11 202
69 12 258
69 13 144
69 14 79
69 15 140
69 16 215
69 17 70
69 18 287
69 19 166
69 20 249
69 21 43
69 22 258
69 23 170
69 24 85
69 25 13
69 26 252
69 27 176
69 28 47
69 29 20
69 30 161
69 31 282
69 32 191
69 33 270
69 34 32
69 35 236
69 36 308
69 37 21
69 38 172
69 39 100
69 40 87
69 41 71
69 42 2
69 43 282
69 44 70
69 45 25
69 46 29
69 47 316
69 48 308
69 49 105
69 50 174
69 51 261
69 52 63
69 53 110
69 54 274
69 55 88
69 56 90
69 57 6
69 58 310
69 59 158
69 60 150
69 61 37
69 62 261
69 63 207
69 64 155
69 65 212
69 66 182
69 67 117
69 68 308
